187 151 36 72 32 50 53 108 19 1 177 96 136 10 148 123 190 143 78 57 39 135 125 174 76 179 156 138 186 122 70 189 164 113 93 103 28 107 105 61 49 153 195 64 9 152 100 131 142 91 60 6 41 165 23 7 86 82 124 77 92 65 99 66 104 37 145 2 180 35 54 185 4 169 52 199 158 137 132 18 16 109 97 160 29 31 33 89 34 26 79 130 171 56 80 140 146 133 24 115 51 198 48 27 62 44 81 155 67 13 43 117 150 102 141 157 101 182 134 173 127 8 11 154 68 168 71 116 5 46 17 110 69 170 167 159 178 184 129 30 144 0 15 84 12 85 87 176 126 98 163 119 3 83 191 188 21 88 162 25 166 94 63 106 192 112 75 20 128 118 22 175 73 90 14 111 120 149 139 38 42 47 172 40 58 193 59 147 95 197 114 74 55 196 121 183 45 194 181 161 

